clingo version 5.5.2
Reading from ...nt/beegfs/home/jubruns/encoding/mif.lp ...
Solving...
Answer: 1
move(1,(3,4),(3,5),1) move(1,(3,5),(4,5),2) move(1,(4,5),(5,5),3) move(1,(5,5),(6,5),4) move(1,(6,5),(5,5),6) move(1,(5,5),(4,5),7) move(1,(4,5),(5,5),9) move(1,(5,5),(5,4),10) move(1,(5,4),(5,3),11) move(1,(5,3),(5,4),12) move(1,(5,4),(5,5),13) move(1,(5,5),(4,5),14) move(1,(4,5),(5,5),15) move(1,(5,5),(5,4),16) move(1,(5,4),(5,3),17) move(1,(5,3),(5,2),18) move(1,(5,2),(5,1),19) move(1,(5,1),(4,1),20) move(1,(4,1),(3,1),21) move(1,(3,1),(2,1),22) move(1,(2,1),(1,1),23) move(1,(1,1),(1,2),24) move(1,(1,2),(1,3),25) move(1,(1,3),(1,4),26) move(1,(1,4),(1,5),27) move(1,(1,5),(1,6),28) move(1,(1,6),(1,7),29) move(1,(1,7),(2,7),30) move(1,(2,7),(3,7),31) move(1,(3,7),(4,7),32) move(2,(7,5),(6,5),2) move(2,(6,5),(7,5),3) move(2,(7,5),(6,5),6) move(2,(6,5),(7,5),8) move(2,(7,5),(6,5),10) move(2,(6,5),(5,5),11) move(2,(5,5),(6,5),12) move(2,(6,5),(7,5),13) move(2,(7,5),(6,5),17) move(2,(6,5),(5,5),18) move(2,(5,5),(6,5),23) move(2,(6,5),(7,5),24) move(2,(7,5),(6,5),26) move(2,(6,5),(5,5),27) move(2,(5,5),(5,4),28) move(2,(5,4),(5,5),29) move(2,(5,5),(6,5),30) move(2,(6,5),(5,5),32) move(3,(6,5),(5,5),1) move(3,(5,5),(5,4),2) move(3,(5,4),(5,3),3) move(3,(5,3),(5,4),4) move(3,(5,4),(5,5),5) move(3,(5,5),(4,5),6) move(3,(4,5),(3,5),7) move(3,(3,5),(3,4),8) move(3,(3,4),(3,5),9) move(3,(3,5),(4,5),10) move(3,(4,5),(3,5),11) move(3,(3,5),(4,5),12) move(3,(4,5),(3,5),13) move(3,(3,5),(4,5),15) move(3,(4,5),(5,5),16) move(3,(5,5),(5,4),17) move(3,(5,4),(5,3),18) move(3,(5,3),(5,2),19) move(3,(5,2),(5,1),21) move(3,(5,1),(4,1),22) move(3,(4,1),(3,1),23) move(3,(3,1),(2,1),24) move(3,(2,1),(1,1),25) move(3,(1,1),(1,2),26) move(3,(1,2),(1,3),27) move(3,(1,3),(1,4),28) move(3,(1,4),(1,5),29) move(3,(1,5),(1,6),30) move(3,(1,6),(1,7),31) move(3,(1,7),(2,7),32) move(4,(7,2),(7,1),1) move(4,(7,1),(6,1),2) move(4,(6,1),(5,1),3) move(4,(5,1),(5,2),4) move(4,(5,2),(5,3),5) move(4,(5,3),(5,4),6) move(4,(5,4),(5,5),7) move(4,(5,5),(6,5),8) move(4,(6,5),(5,5),10) move(4,(5,5),(5,4),11) move(4,(5,4),(5,5),12) move(4,(5,5),(6,5),13) move(4,(6,5),(5,5),17) move(4,(5,5),(5,4),18) move(4,(5,4),(5,3),19) move(4,(5,3),(5,4),23) move(4,(5,4),(5,5),24) move(4,(5,5),(4,5),25) move(4,(4,5),(3,5),26) move(4,(3,5),(3,4),28) move(4,(3,4),(3,3),29) move(4,(3,3),(3,4),30) move(5,(2,7),(1,7),1) move(5,(1,7),(1,6),2) move(5,(1,6),(1,5),3) move(5,(1,5),(1,4),4) move(5,(1,4),(1,3),5) move(5,(1,3),(1,2),6) move(5,(1,2),(1,1),7) move(5,(1,1),(2,1),8) move(5,(2,1),(3,1),9) move(5,(3,1),(4,1),10) move(5,(4,1),(5,1),11) move(5,(5,1),(5,2),12) move(5,(5,2),(5,3),13) move(5,(5,3),(5,4),14) move(5,(5,4),(5,3),15) move(5,(5,3),(5,2),16) move(5,(5,2),(5,1),17) move(5,(5,1),(4,1),18) move(5,(4,1),(3,1),19) move(5,(3,1),(2,1),20) move(5,(2,1),(1,1),21) move(5,(1,1),(1,2),22) move(5,(1,2),(1,3),23) move(5,(1,3),(1,4),24) move(5,(1,4),(1,5),25) move(5,(1,5),(1,6),26) move(5,(1,6),(1,7),27) move(5,(1,7),(2,7),28) move(5,(2,7),(3,7),29) move(5,(3,7),(4,7),30) move(5,(4,7),(5,7),31) move(5,(5,7),(6,7),32) move(6,(3,5),(4,5),1) move(6,(4,5),(5,5),2) move(6,(5,5),(5,4),3) move(6,(5,4),(5,5),4) move(6,(5,5),(4,5),5) move(6,(4,5),(3,5),6) move(6,(3,5),(3,4),7) move(6,(3,4),(3,3),8) move(6,(3,3),(3,4),10) move(6,(3,4),(3,5),12) move(6,(3,5),(3,4),13) move(6,(3,4),(3,3),15) move(6,(3,3),(3,4),16) move(6,(3,4),(3,5),17) move(6,(3,5),(4,5),18) move(6,(4,5),(3,5),20) move(6,(3,5),(4,5),22) move(6,(4,5),(5,5),23) move(6,(5,5),(6,5),24) move(6,(6,5),(5,5),26) move(6,(5,5),(4,5),27) move(6,(4,5),(5,5),28) move(6,(5,5),(6,5),29) move(6,(6,5),(7,5),30) move(7,(4,7),(3,7),1) move(7,(3,7),(2,7),2) move(7,(2,7),(1,7),3) move(7,(1,7),(1,6),4) move(7,(1,6),(1,5),5) move(7,(1,5),(1,4),6) move(7,(1,4),(1,3),7) move(7,(1,3),(1,2),8) move(7,(1,2),(1,1),9) move(7,(1,1),(2,1),10) move(7,(2,1),(3,1),11) move(7,(3,1),(4,1),13) move(7,(4,1),(5,1),14) move(7,(5,1),(6,1),15) move(7,(6,1),(7,1),16) move(7,(7,1),(7,2),18) move(7,(7,2),(7,3),19) move(7,(7,3),(7,2),24) move(7,(7,2),(7,3),26) move(7,(7,3),(7,2),27) move(7,(7,2),(7,1),28) move(7,(7,1),(6,1),29) move(7,(6,1),(5,1),31) move(7,(5,1),(4,1),32) move(8,(1,7),(1,6),1) move(8,(1,6),(1,5),2) move(8,(1,5),(1,4),3) move(8,(1,4),(1,3),4) move(8,(1,3),(1,2),5) move(8,(1,2),(1,1),6) move(8,(1,1),(2,1),7) move(8,(2,1),(3,1),8) move(8,(3,1),(4,1),9) move(8,(4,1),(5,1),10) move(8,(5,1),(5,2),11) move(8,(5,2),(5,3),12) move(8,(5,3),(5,4),13) move(8,(5,4),(5,5),14) move(8,(5,5),(5,4),15) move(8,(5,4),(5,3),16) move(8,(5,3),(5,2),17) move(8,(5,2),(5,1),18) move(8,(5,1),(6,1),19) move(8,(6,1),(5,1),20) move(8,(5,1),(4,1),21) move(8,(4,1),(3,1),22) move(8,(3,1),(2,1),23) move(8,(2,1),(1,1),24) move(8,(1,1),(1,2),25) move(8,(1,2),(1,3),26) move(8,(1,3),(1,4),27) move(8,(1,4),(1,5),28) move(8,(1,5),(1,6),29) move(8,(1,6),(1,7),30) move(8,(1,7),(2,7),31) move(8,(2,7),(3,7),32) move(9,(1,2),(1,1),1) move(9,(1,1),(2,1),2) move(9,(2,1),(3,1),3) move(9,(3,1),(4,1),4) move(9,(4,1),(5,1),5) move(9,(5,1),(6,1),6) move(9,(6,1),(5,1),8) move(9,(5,1),(6,1),9) move(9,(6,1),(7,1),10) move(9,(7,1),(6,1),11) move(9,(6,1),(5,1),12) move(9,(5,1),(5,2),13) move(9,(5,2),(5,3),14) move(9,(5,3),(5,2),15) move(9,(5,2),(5,1),16) move(9,(5,1),(4,1),17) move(9,(4,1),(3,1),18) move(9,(3,1),(2,1),19) move(9,(2,1),(1,1),20) move(9,(1,1),(1,2),21) move(9,(1,2),(1,3),22) move(9,(1,3),(1,4),23) move(9,(1,4),(1,5),24) move(9,(1,5),(1,6),25) move(9,(1,6),(1,7),26) move(9,(1,7),(2,7),27) move(9,(2,7),(3,7),28) move(9,(3,7),(4,7),29) move(9,(4,7),(5,7),30) move(9,(5,7),(6,7),31) move(9,(6,7),(7,7),32) move(10,(6,7),(5,7),1) move(10,(5,7),(4,7),2) move(10,(4,7),(3,7),3) move(10,(3,7),(2,7),4) move(10,(2,7),(1,7),5) move(10,(1,7),(1,6),6) move(10,(1,6),(1,5),7) move(10,(1,5),(1,4),8) move(10,(1,4),(1,3),9) move(10,(1,3),(1,2),10) move(10,(1,2),(1,1),11) move(10,(1,1),(2,1),12) move(10,(2,1),(3,1),13) move(10,(3,1),(4,1),14) move(10,(4,1),(5,1),15) move(10,(5,1),(6,1),16) move(10,(6,1),(7,1),18) move(10,(7,1),(7,2),19) move(10,(7,2),(7,1),21) move(10,(7,1),(6,1),22) move(10,(6,1),(5,1),24) move(10,(5,1),(4,1),25) move(10,(4,1),(5,1),26) move(10,(5,1),(5,2),27) move(10,(5,2),(5,3),28) move(10,(5,3),(5,4),29) move(10,(5,4),(5,5),30) move(10,(5,5),(4,5),32)
SATISFIABLE

Models       : 1+
Calls        : 1
Time         : 0.756s (Solving: 0.47s 1st Model: 0.47s Unsat: 0.00s)
CPU Time     : 0.734s

Choices      : 8428     (Domain: 8428)
Conflicts    : 5598     (Analyzed: 5598)
Restarts     : 29       (Average: 193.03 Last: 544)
Model-Level  : 95.0    
Problems     : 1        (Average Length: 0.00 Splits: 0)
Lemmas       : 5598     (Deleted: 1635)
  Binary     : 357      (Ratio:   6.38%)
  Ternary    : 417      (Ratio:   7.45%)
  Conflict   : 5598     (Average Length:   38.2 Ratio: 100.00%) 
  Loop       : 0        (Average Length:    0.0 Ratio:   0.00%) 
  Other      : 0        (Average Length:    0.0 Ratio:   0.00%) 
Backjumps    : 5598     (Average:  1.45 Max:  32 Sum:   8134)
  Executed   : 5598     (Average:  1.45 Max:  32 Sum:   8134 Ratio: 100.00%)
  Bounded    : 0        (Average:  0.00 Max:   0 Sum:      0 Ratio:   0.00%)

Rules        : 81852    (Original: 72352)
  Choice     : 320     
  Heuristic  : 7153     (Original: 7263)
Atoms        : 31695   
Bodies       : 53109    (Original: 43499)
  Count      : 1208     (Original: 1842)
Equivalences : 27761    (Atom=Atom: 338 Body=Body: 349 Other: 27074)
Tight        : Yes
Variables    : 49193    (Eliminated:    0 Frozen: 26353)
Constraints  : 131775   (Binary:  77.2% Ternary:  15.7% Other:   7.1%)

